SystemName          system
SystemLabel         system

NumberOfAtoms       3
NumberOfSpecies     2
%block Chemical_Species_label
  1  1  H
  2  8  O
%endblock Chemical_Species_label

MeshCutoff             300.0 Ry
%block kgrid_Monkhorst_Pack
  1  0  0  0.0
  0  1  0  0.0
  0  0  1  0.0
%endblock kgrid_Monkhorst_Pack

WriteForces            T
WriteCoorStep          T
WriteCoorXmol          T
WriteMDXmol            T
WriteMDHistory         T

MD.TypeOfRun           Anneal
MD.InitialTimeStep     1
MD.FinalTimeStep       1000
MD.LengthTimeStep      2.0 fs
MD.TauRelax            10.0 fs
MD.AnnealOption        Temperature
MD.InitialTemperature  300.0 K
MD.TargetTemperature   300.0 K

ElectronicTemperature  300.0 K pp
MaxSCFIterations       30
DM.MixingWeight        0.05
DM.NumberPulay         5
DM.Tolerance           1.d-4

XC.functional          GGA
XC.authors             PBE

MD.UseSaveXV           T
DM.UseSaveDM           F
WriteDM                F
WriteDM.NetCDF         F
WriteDMHS.NetCDF       F

LatticeConstant    1.00 Ang
%block LatticeVectors
 20.0000   0.0000   0.0000
  0.0000  20.0000   0.0000
  0.0000   0.0000  20.0000  
%endblock LatticeVectors

AtomicCoordinatesFormat Ang
%block AtomicCoordinatesAndAtomicSpecies
  2.226191    6.438836    3.200885  2  O  
  2.226191    6.453672    2.204584  1  H  
  2.226191    7.397542    3.496887  1  H  
%endblock AtomicCoordinatesAndAtomicSpecies

